15 10 10.0
4 10 1 1 2 4 3 6 4 9 5 3 6 5 7 2 8 8 9 9 10 4 10 1 1 2 1 3 3 4 4 5 8 6 10 7 4 8 11 9 4 10 3 10 1 2 2 5 3 1 4 5 5 6 6 9 7 5 8 10 9 3 10 2 10 1 10 2 4 3 5 4 9 5 8 6 4 7 15 8 8 9 4 10 4 
4 10 1 4 2 8 3 7 4 1 5 9 6 6 7 1 8 10 9 7 10 1 10 1 6 2 11 3 2 4 7 5 5 6 3 7 5 8 14 9 9 10 2 10 1 8 2 5 3 8 4 9 5 4 6 3 7 5 8 3 9 8 10 1 10 1 9 2 3 3 6 4 1 5 2 6 6 7 4 8 1 9 7 10 2 
4 10 1 7 2 1 3 8 4 5 5 4 6 9 7 1 8 2 9 3 10 4 10 1 5 2 10 3 6 4 4 5 9 6 5 7 1 8 7 9 1 10 6 10 1 4 2 2 3 3 4 8 5 7 6 4 7 6 8 9 9 8 10 4 10 1 7 2 3 3 12 4 1 5 6 6 5 7 8 8 3 9 5 10 2 
4 10 1 6 2 2 3 5 4 4 5 1 6 2 7 3 8 6 9 5 10 4 10 1 8 2 5 3 7 4 4 5 1 6 2 7 36 8 5 9 8 10 5 10 1 9 2 6 3 2 4 4 5 5 6 1 7 3 8 6 9 5 10 2 10 1 11 2 4 3 5 4 6 5 2 6 7 7 5 8 4 9 2 10 1 
4 10 1 6 2 9 3 2 4 3 5 5 6 8 7 7 8 4 9 1 10 2 10 1 5 2 4 3 6 4 3 5 5 6 2 7 28 8 7 9 4 10 5 10 1 6 2 2 3 4 4 3 5 6 6 5 7 2 8 4 9 7 10 9 10 1 6 2 5 3 4 4 2 5 3 6 2 7 5 8 4 9 7 10 5 
2 10 1 4 2 1 3 3 4 2 5 6 6 9 7 8 8 5 9 4 10 2 10 1 1 2 3 3 6 4 5 5 4 6 7 7 5 8 4 9 6 10 5 
2 10 1 1 2 4 3 2 4 5 5 3 6 6 7 9 8 8 9 5 10 4 10 1 2 2 1 3 4 4 5 5 2 6 3 7 5 8 4 9 2 10 5 
4 10 1 2 2 3 3 6 4 2 5 5 6 4 7 1 8 5 9 8 10 7 10 1 4 2 5 3 6 4 2 5 3 6 5 7 4 8 1 9 2 10 5 10 1 3 2 5 3 4 4 2 5 5 6 49 7 8 8 5 9 4 10 5 10 1 1 2 2 3 36 4 5 5 2 6 3 7 6 8 4 9 11 10 2 
4 10 1 6 2 3 3 2 4 22 5 44 6 11 7 10 8 23 9 5 10 1 10 1 2 2 3 3 2 4 12 5 15 6 10 7 12 8 14 9 18 10 16 10 1 20 2 17 3 12 4 5 5 9 6 6 7 4 8 7 9 5 10 6 10 1 9 2 8 3 7 4 4 5 5 6 8 7 7 8 4 9 56 10 2 
4 10 1 5 2 8 3 7 4 4 5 56 6 3 7 2 8 5 9 4 10 1 10 1 2 2 5 3 6 4 9 5 8 6 5 7 4 8 2 9 5 10 4 10 1 6 2 3 3 2 4 5 5 4 6 7 7 4 8 5 9 2 10 1 10 1 3 2 2 3 5 4 6 5 5 6 8 7 7 8 4 9 5 10 2 
4 10 1 1 2 2 3 3 4 6 5 5 6 2 7 1 8 4 9 2 10 1 10 1 2 2 3 3 6 4 3 5 2 6 1 7 4 8 10 9 12 10 1 10 1 3 2 6 3 2 4 5 5 8 6 4 7 6 8 3 9 2 10 5 10 1 4 2 1 3 45 4 6 5 2 6 4 7 1 8 25 9 2 10 4 
4 10 1 9 2 8 3 5 4 6 5 3 6 6 7 5 8 2 9 4 10 2 10 1 5 2 8 3 9 4 5 5 4 6 75 7 63 8 6 9 5 10 21 10 1 12 2 5 3 4 4 6 5 3 6 2 7 5 8 4 9 2 10 5 10 1 8 2 7 3 9 4 5 5 6 6 3 7 2 8 5 9 8 10 4 
4 10 1 4 2 2 3 5 4 6 5 8 6 5 7 6 8 4 9 6 10 2 10 1 3 2 5 3 4 4 7 5 5 6 8 7 6 8 6 9 3 10 2 10 1 5 2 4 3 5 4 8 5 5 6 4 7 6 8 5 9 4 10 2 10 1 3 2 2 3 5 4 6 5 5 6 4 7 8 8 5 9 6 10 4 
4 10 1 2 2 3 3 5 4 4 5 6 6 5 7 4 8 85 9 4 10 5 10 1 6 2 2 3 4 4 5 5 8 6 6 7 5 8 4 9 2 10 6 10 1 3 2 25 3 4 4 8 5 5 6 6 7 3 8 2 9 5 10 4 10 1 8 2 5 3 6 4 4 5 2 6 3 7 6 8 8 9 5 10 4 
4 10 1 2 2 5 3 6 4 8 5 5 6 6 7 3 8 2 9 5 10 4 10 1 5 2 6 3 2 4 5 5 4 6 2 7 5 8 3 9 2 10 5 10 1 4 2 5 3 2 4 3 5 5 6 2 7 8 8 4 9 7 10 5 10 1 6 2 2 3 11 4 14 5 2 6 3 7 6 8 5 9 4 10 8 
12 1 0 3 1 3 6 1 6 9 1 10 11 1 12 15 1 15 18 1 18 21 1 21 24 1 24 27 1 27 30 1 30 33 1 33 36 
8 1 1 3 1 5 7 1 9 11 2 12 16 1 17 19 2 20 24 2 24 28 1 29 31 
8 1 0 5 3 5 10 1 11 14 2 15 20 2 21 24 1 26 29 1 30 35 1 36 39 
7 1 0 5 3 5 10 2 10 15 1 16 19 1 20 25 1 26 29 1 31 34 
7 1 1 5 1 8 10 2 13 17 2 19 23 3 24 30 3 31 35 3 37 41 
3 5 2 12 5 18 24 2 32 38 
11 1 1 3 1 5 7 1 8 12 1 13 15 1 17 19 2 20 24 1 24 28 2 28 32 1 32 36 1 37 39 1 41 43 
3 5 2 12 1 17 25 1 32 38 
2 6 2 15 2 22 29 
13 1 0 2 1 2 4 1 4 6 1 6 8 1 8 10 1 10 12 1 12 14 1 14 16 1 16 18 1 18 20 1 20 22 1 22 24 1 24 26 
